00000000000000000000000000000000000000000000000000,00000000000000000000000000000000000000000000000000,00000000000000000000000000000000000000000000000000,00010001011000000001000000000101010100000000100000,00000000000000000000000000000000000000000000000000,00000000100011010000000000010000101011010110001100,00001000000100000100010011001000000000001000010011,00100010000000100000001100100000000000000000000000,00000000000000000000000000000000000000000000000000,11000100000000001010100000000010000000100001000000,[],[],[],[0, 0, 0, 9, 0, 0, 0, 2, 0, 2, 9, 0, 0, 0, 0, 0, 0, 0, 0, 2, 0, 0, 0, 0, 0, 0, 0, 0, 0, 9, 0, 2, 0, 2, 0, 2, 0, 0, 0, 0, 0, 0, 0, 0, 9, 0, 0, 0, 0, 0],[],[0, 0, 0, 0, 0, 0, 0, 0, 1, 0, 0, 0, 1, 7, 0, 1, 0, 0, 0, 0, 0, 0, 0, 0, 0, 0, 0, 1, 0, 0, 0, 0, 1, 0, 1, 0, 7, 1, 0, 7, 0, 7, 1, 0, 0, 0, 1, 1, 0, 0],[0, 0, 0, 0, 10, 0, 0, 0, 0, 0, 0, 6, 0, 0, 0, 0, 0, 6, 0, 0, 0, 6, 0, 0, 10, 6, 0, 0, 6, 0, 0, 0, 0, 0, 0, 0, 0, 0, 0, 0, 10, 0, 0, 0, 0, 6, 0, 0, 10, 10],[0, 0, 4, 0, 0, 0, 8, 0, 0, 0, 0, 0, 0, 0, 4, 0, 0, 0, 0, 0, 0, 0, 8, 4, 0, 0, 8, 0, 0, 0, 0, 0, 0, 0, 0, 0, 0, 0, 0, 0, 0, 0, 0, 0, 0, 0, 0, 0, 0, 0],[],[5, 3, 0, 0, 0, 3, 0, 0, 0, 0, 0, 0, 0, 0, 0, 0, 5, 0, 3, 0, 5, 0, 0, 0, 0, 0, 0, 0, 0, 0, 5, 0, 0, 0, 0, 0, 0, 0, 3, 0, 0, 0, 0, 3, 0, 0, 0, 0, 0, 0][32, 42, 46, 47, 8, 34, 27, 37, 12, 15],[35, 19, 9, 33, 31, 7],[5, 18, 1, 43, 38],[14, 2, 23],[30, 20, 16, 0],[17, 25, 21, 45, 11, 28],[39, 36, 13, 41],[22, 6, 26],[10, 29, 44, 3],[4, 24, 40, 48, 49]
00000000000000000000000000000000000000000000000000,00000000000000000000000000000000000000000000000000,00000000000000000000000000000000000000000000000000,00110011001000100001001100000100010100000000100000,00000000110000000000000000110001101011010010011101,00000000000000000000000000000000000000000000000000,00001000000100000100010011001000000000001000000010,00000000000000000000000000000000000000000000000000,00000000000000000000000000000000000000000000000000,11000100000011011010100000000010000000100101000000,[],[],[],[0, 0, 10, 10, 0, 0, 10, 1, 0, 0, 1, 0, 0, 0, 1, 0, 0, 0, 0, 10, 0, 0, 1, 1, 0, 0, 0, 0, 0, 1, 0, 0, 0, 1, 0, 10, 0, 0, 0, 0, 0, 0, 0, 0, 10, 0, 0, 0, 0, 0],[0, 0, 0, 0, 0, 0, 0, 0, 3, 6, 0, 0, 0, 0, 0, 0, 0, 0, 0, 0, 0, 0, 0, 0, 0, 0, 8, 3, 0, 0, 0, 3, 6, 0, 6, 0, 8, 6, 0, 6, 0, 0, 3, 0, 0, 3, 3, 8, 0, 3],[],[0, 0, 0, 0, 9, 0, 0, 0, 0, 0, 0, 4, 0, 0, 0, 0, 0, 4, 0, 0, 0, 9, 0, 0, 9, 4, 0, 0, 9, 0, 0, 0, 0, 0, 0, 0, 0, 0, 0, 0, 9, 0, 0, 0, 0, 0, 0, 0, 9, 0],[],[],[2, 2, 0, 0, 0, 5, 0, 0, 0, 0, 0, 0, 7, 7, 0, 7, 5, 0, 2, 0, 2, 0, 0, 0, 0, 0, 0, 0, 0, 0, 5, 0, 0, 0, 0, 0, 0, 0, 7, 0, 0, 7, 0, 7, 0, 0, 0, 0, 0, 0][29, 22, 23, 33, 10, 7, 14],[18, 1, 20, 0],[42, 27, 8, 31, 49, 45, 46],[11, 25, 17],[16, 5, 30],[34, 37, 32, 9, 39],[15, 41, 12, 13, 43, 38],[36, 26, 47],[4, 24, 48, 21, 28, 40],[19, 6, 2, 44, 3, 35]
00010010000000000000001000000000000000000000000000,00000000111000000000000000011101101000000000000101,10100100000011010010000100100000000000000100000000,00000001000000000001000000000000010100000000100000,00000000000000000000000000000000000000000000000000,00000000000000000000000000000000000000000000000000,01001000000100001100110011000010000000101000010010,00000000000000000000000000000000000000000000000000,00000000000000100000000000000000000011010011001000,00000000000000000000000000000000000000000000000000,[0, 0, 0, 7, 0, 0, 7, 0, 0, 0, 0, 0, 0, 0, 0, 0, 0, 0, 0, 0, 0, 0, 7, 0, 0, 0, 0, 0, 0, 0, 0, 0, 0, 0, 0, 0, 0, 0, 0, 0, 0, 0, 0, 0, 0, 0, 0, 0, 0, 0],[0, 0, 0, 0, 0, 0, 0, 0, 2, 3, 2, 0, 0, 0, 0, 0, 0, 0, 0, 0, 0, 0, 0, 0, 0, 0, 0, 3, 2, 3, 0, 2, 2, 0, 2, 0, 0, 0, 0, 0, 0, 0, 0, 0, 0, 0, 0, 3, 0, 3],[5, 0, 9, 0, 0, 5, 0, 0, 0, 0, 0, 0, 5, 9, 0, 5, 0, 0, 5, 0, 0, 0, 0, 9, 0, 0, 9, 0, 0, 0, 0, 0, 0, 0, 0, 0, 0, 0, 0, 0, 0, 5, 0, 0, 0, 0, 0, 0, 0, 0],[0, 0, 0, 0, 0, 0, 0, 8, 0, 0, 0, 0, 0, 0, 0, 0, 0, 0, 0, 8, 0, 0, 0, 0, 0, 0, 0, 0, 0, 0, 0, 0, 0, 8, 0, 8, 0, 0, 0, 0, 0, 0, 0, 0, 8, 0, 0, 0, 0, 0],[],[],[0, 10, 0, 0, 1, 0, 0, 0, 0, 0, 0, 10, 0, 0, 0, 0, 10, 1, 0, 0, 1, 10, 0, 0, 1, 10, 0, 0, 0, 0, 10, 0, 0, 0, 0, 0, 0, 0, 1, 0, 1, 0, 0, 0, 0, 1, 0, 0, 10, 0],[],[0, 0, 0, 0, 0, 0, 0, 0, 0, 0, 0, 0, 0, 0, 6, 0, 0, 0, 0, 0, 0, 0, 0, 0, 0, 0, 0, 0, 0, 0, 0, 0, 0, 0, 0, 0, 6, 6, 0, 4, 0, 0, 6, 4, 0, 0, 4, 0, 0, 0],[][45, 38, 20, 24, 40, 17, 4],[32, 10, 31, 28, 34, 8],[9, 49, 27, 47, 29],[39, 46, 43],[15, 0, 18, 12, 41, 5],[36, 37, 42, 14],[3, 6, 22],[33, 7, 35, 19, 44],[2, 23, 13, 26],[11, 25, 30, 16, 1, 48, 21]
00000000000000000000000000000000000000000000000000,00000001011000000001000000011101111100000010100001,00110010000000010000001100100000000000000000000000,00000000000000000000000000000000000000000000000000,00000000000000000000000000000000000000000000000000,00000000100011100000000000000000000011010100001100,00001000000100000100010011000000000000001000010010,00000000000000000000000000000000000000000000000000,00000000000000000000000000000000000000000000000000,11000100000000001010100000000010000000100001000000,[],[0, 0, 0, 0, 0, 0, 0, 2, 0, 2, 3, 0, 0, 0, 0, 0, 0, 0, 0, 2, 0, 0, 0, 0, 0, 0, 0, 3, 3, 2, 0, 2, 3, 3, 2, 3, 0, 0, 0, 0, 0, 0, 3, 0, 2, 0, 0, 0, 0, 3],[0, 0, 7, 7, 0, 0, 7, 0, 0, 0, 0, 0, 0, 0, 0, 7, 0, 0, 0, 0, 0, 0, 5, 5, 0, 0, 5, 0, 0, 0, 0, 0, 0, 0, 0, 0, 0, 0, 0, 0, 0, 0, 0, 0, 0, 0, 0, 0, 0, 0],[],[],[0, 0, 0, 0, 0, 0, 0, 0, 1, 0, 0, 0, 8, 8, 1, 0, 0, 0, 0, 0, 0, 0, 0, 0, 0, 0, 0, 0, 0, 0, 0, 0, 0, 0, 0, 0, 8, 1, 0, 1, 0, 8, 0, 0, 0, 0, 1, 1, 0, 0],[0, 0, 0, 0, 4, 0, 0, 0, 0, 0, 0, 6, 0, 0, 0, 0, 0, 4, 0, 0, 0, 6, 0, 0, 6, 6, 0, 0, 0, 0, 0, 0, 0, 0, 0, 0, 0, 0, 0, 0, 4, 0, 0, 0, 0, 6, 0, 0, 4, 0],[],[],[9, 10, 0, 0, 0, 10, 0, 0, 0, 0, 0, 0, 0, 0, 0, 0, 9, 0, 10, 0, 10, 0, 0, 0, 0, 0, 0, 0, 0, 0, 9, 0, 0, 0, 0, 0, 0, 0, 9, 0, 0, 0, 0, 10, 0, 0, 0, 0, 0, 0][14, 39, 8, 37, 47, 46],[44, 34, 31, 7, 29, 19, 9],[27, 35, 32, 42, 10, 49, 33, 28],[4, 17, 48, 40],[26, 22, 23],[11, 45, 25, 21, 24],[15, 6, 3, 2],[13, 12, 36, 41],[30, 0, 16, 38],[18, 1, 43, 5, 20]
00110011000000000000001100000000010100000000000000,00000000011000000001000000011101101000000010100001,00000000000000000000000000000000000000000000000000,00000000000000000000000000000000000000000000000000,00000000000000000000000000000000000000000000000000,00000000100011110000000000100000000011010100001100,00001000000100000100010011000000000000001000010010,00000000000000000000000000000000000000000000000000,00000000000000000000000000000000000000000000000000,11000100000000001010100000000010000000100001000000,[0, 0, 4, 7, 0, 0, 4, 7, 0, 0, 0, 0, 0, 0, 0, 0, 0, 0, 0, 0, 0, 0, 7, 4, 0, 0, 0, 0, 0, 0, 0, 0, 0, 4, 0, 4, 0, 0, 0, 0, 0, 0, 0, 0, 0, 0, 0, 0, 0, 0],[0, 0, 0, 0, 0, 0, 0, 0, 0, 10, 10, 0, 0, 0, 0, 0, 0, 0, 0, 10, 0, 0, 0, 0, 0, 0, 0, 2, 10, 10, 0, 2, 2, 0, 10, 0, 0, 0, 0, 0, 0, 0, 10, 0, 2, 0, 0, 0, 0, 2],[],[],[],[0, 0, 0, 0, 0, 0, 0, 0, 1, 0, 0, 0, 1, 1, 9, 1, 0, 0, 0, 0, 0, 0, 0, 0, 0, 0, 9, 0, 0, 0, 0, 0, 0, 0, 0, 0, 1, 1, 0, 1, 0, 1, 0, 0, 0, 0, 9, 9, 0, 0],[0, 0, 0, 0, 6, 0, 0, 0, 0, 0, 0, 6, 0, 0, 0, 0, 0, 6, 0, 0, 0, 6, 0, 0, 5, 6, 0, 0, 0, 0, 0, 0, 0, 0, 0, 0, 0, 0, 0, 0, 5, 0, 0, 0, 0, 6, 0, 0, 5, 0],[],[],[3, 3, 0, 0, 0, 3, 0, 0, 0, 0, 0, 0, 0, 0, 0, 0, 8, 0, 8, 0, 8, 0, 0, 0, 0, 0, 0, 0, 0, 0, 3, 0, 0, 0, 0, 0, 0, 0, 8, 0, 0, 0, 0, 3, 0, 0, 0, 0, 0, 0][13, 41, 15, 12, 39, 8, 37, 36],[27, 32, 49, 31, 44],[30, 43, 5, 1, 0],[35, 33, 6, 23, 2],[40, 24, 48],[21, 17, 4, 11, 25, 45],[3, 22, 7],[18, 16, 20, 38],[26, 46, 47, 14],[19, 10, 28, 29, 34, 42, 9]
00000000000000000000000000000000000000000000000000,00000000011000000001000000001101110000000000100001,00000000000000000000000000000000000000000000000000,00000000000000000000000000000000000000000000000000,01000000100000001000000000010000001000100011011100,10000100000011010010000000000010000011010100000000,00001000000100000100110011000000000000001000000010,00110011000000100000001100100000000100000000000000,00000000000000000000000000000000000000000000000000,00000000000000000000000000000000000000000000000000,[],[0, 0, 0, 0, 0, 0, 0, 0, 0, 8, 3, 0, 0, 0, 0, 0, 0, 0, 0, 3, 0, 0, 0, 0, 0, 0, 0, 0, 3, 3, 0, 8, 3, 3, 0, 0, 0, 0, 0, 0, 0, 0, 0, 0, 3, 0, 0, 0, 0, 8],[],[],[0, 10, 0, 0, 0, 0, 0, 0, 7, 0, 0, 0, 0, 0, 0, 0, 7, 0, 0, 0, 0, 0, 0, 0, 0, 0, 0, 10, 0, 0, 0, 0, 0, 0, 10, 0, 0, 0, 10, 0, 0, 0, 10, 7, 0, 7, 7, 10, 0, 0],[6, 0, 0, 0, 0, 1, 0, 0, 0, 0, 0, 0, 6, 1, 0, 6, 0, 0, 6, 0, 0, 0, 0, 0, 0, 0, 0, 0, 0, 0, 6, 0, 0, 0, 0, 0, 1, 1, 0, 1, 0, 1, 0, 0, 0, 0, 0, 0, 0, 0],[0, 0, 0, 0, 4, 0, 0, 0, 0, 0, 0, 4, 0, 0, 0, 0, 0, 2, 0, 0, 2, 2, 0, 0, 4, 2, 0, 0, 0, 0, 0, 0, 0, 0, 0, 0, 0, 0, 0, 0, 4, 0, 0, 0, 0, 0, 0, 0, 2, 0],[0, 0, 9, 9, 0, 0, 9, 5, 0, 0, 0, 0, 0, 0, 5, 0, 0, 0, 0, 0, 0, 0, 9, 9, 0, 0, 5, 0, 0, 0, 0, 0, 0, 0, 0, 5, 0, 0, 0, 0, 0, 0, 0, 0, 0, 0, 0, 0, 0, 0],[],[][5, 41, 36, 39, 13, 37],[21, 20, 17, 48, 25],[44, 29, 33, 32, 10, 19, 28],[24, 40, 11, 4],[14, 7, 35, 26],[0, 12, 15, 30, 18],[45, 16, 43, 46, 8],[49, 9, 31],[22, 6, 2, 23, 3],[34, 27, 42, 47, 38, 1]
00110011000000000000001100000000010100000000100000,00000000000000000000000000000000000000000000000000,00000000000000000000000000000000000000000000000000,00000000000000000000000000000000000000000000000000,00000000111000000001000000010101101000000010011101,00000000000011110000000000100000000011010100000000,00001000000100000100010011001000000000001000000010,00000000000000000000000000000000000000000000000000,00000000000000000000000000000000000000000000000000,11000100000000001010100000000010000000100001000000,[0, 0, 4, 4, 0, 0, 4, 2, 0, 0, 0, 0, 0, 0, 0, 0, 0, 0, 0, 0, 0, 0, 2, 2, 0, 0, 0, 0, 0, 0, 0, 0, 0, 2, 0, 2, 0, 0, 0, 0, 0, 0, 0, 0, 2, 0, 0, 0, 0, 0],[],[],[],[0, 0, 0, 0, 0, 0, 0, 0, 1, 1, 3, 0, 0, 0, 0, 0, 0, 0, 0, 3, 0, 0, 0, 0, 0, 0, 0, 1, 0, 1, 0, 3, 1, 0, 1, 0, 0, 0, 0, 0, 0, 0, 3, 0, 0, 3, 3, 3, 0, 1],[0, 0, 0, 0, 0, 0, 0, 0, 0, 0, 0, 0, 5, 5, 6, 6, 0, 0, 0, 0, 0, 0, 0, 0, 0, 0, 6, 0, 0, 0, 0, 0, 0, 0, 0, 0, 5, 6, 0, 6, 0, 6, 0, 0, 0, 0, 0, 0, 0, 0],[0, 0, 0, 0, 7, 0, 0, 0, 0, 0, 0, 8, 0, 0, 0, 0, 0, 7, 0, 0, 0, 7, 0, 0, 7, 8, 0, 0, 8, 0, 0, 0, 0, 0, 0, 0, 0, 0, 0, 0, 8, 0, 0, 0, 0, 0, 0, 0, 8, 0],[],[],[10, 10, 0, 0, 0, 10, 0, 0, 0, 0, 0, 0, 0, 0, 0, 0, 9, 0, 9, 0, 9, 0, 0, 0, 0, 0, 0, 0, 0, 0, 9, 0, 0, 0, 0, 0, 0, 0, 9, 0, 0, 0, 0, 10, 0, 0, 0, 0, 0, 0][27, 9, 29, 32, 34, 49, 8],[7, 35, 44, 33, 22, 23],[19, 10, 42, 31, 46, 45, 47],[6, 2, 3],[12, 13, 36],[26, 15, 37, 39, 14, 41],[17, 4, 21, 24],[40, 11, 25, 28, 48],[20, 38, 16, 18, 30],[0, 1, 5, 43]
00000000000000000000000000000000000000000000000000,00000000000000000000000000000000000000000000000000,00000000000000000000000000000000000000000000000000,00000000000000000000000000000000000000000000000000,00000000110000000000000000010000101010000000011101,00000000000000000000000000000000000000000000000000,00001000000100000100010011001000000000001000000010,00000000000000000000000000000000000000000000000000,00110011001000100001001100100101010101010010100000,11000100000011011010100000000010000000100101000000,[],[],[],[],[0, 0, 0, 0, 0, 0, 0, 0, 2, 1, 0, 0, 0, 0, 0, 0, 0, 0, 0, 0, 0, 0, 0, 0, 0, 0, 0, 1, 0, 0, 0, 0, 2, 0, 1, 0, 2, 0, 0, 0, 0, 0, 0, 0, 0, 1, 1, 1, 0, 2],[],[0, 0, 0, 0, 5, 0, 0, 0, 0, 0, 0, 8, 0, 0, 0, 0, 0, 5, 0, 0, 0, 8, 0, 0, 5, 5, 0, 0, 8, 0, 0, 0, 0, 0, 0, 0, 0, 0, 0, 0, 8, 0, 0, 0, 0, 0, 0, 0, 8, 0],[],[0, 0, 3, 9, 0, 0, 9, 4, 0, 0, 9, 0, 0, 0, 4, 0, 0, 0, 0, 4, 0, 0, 9, 9, 0, 0, 4, 0, 0, 3, 0, 3, 0, 9, 0, 3, 0, 3, 0, 3, 0, 0, 4, 0, 3, 0, 0, 0, 0, 0],[10, 6, 0, 0, 0, 6, 0, 0, 0, 0, 0, 0, 10, 10, 0, 10, 7, 0, 7, 0, 7, 0, 0, 0, 0, 0, 0, 0, 0, 0, 10, 0, 0, 0, 0, 0, 0, 0, 6, 0, 0, 7, 0, 10, 0, 0, 0, 0, 0, 0][9, 46, 47, 34, 45, 27],[32, 36, 8, 49],[35, 44, 29, 31, 39, 2, 37],[42, 19, 14, 26, 7],[4, 24, 25, 17],[1, 5, 38],[18, 20, 41, 16],[40, 21, 48, 11, 28],[22, 23, 6, 10, 33, 3],[43, 30, 13, 0, 12, 15]
00000000000000000000000000000000000000000000000000,00000000000000000000000000000000000000000000000000,00000000000000000000000000000000000000000000000000,00000000000000000000000000000000000000000000000000,00000000110000000000000000010000101000000000011101,00000000000011010000000100100000000011010100000000,00001000000100000100010011001000000000001000000010,00000000000000000000000000000000000000000000000000,00110011001000100001001000000101010100000010100000,11000100000000001010100000000010000000100001000000,[],[],[],[],[0, 0, 0, 0, 0, 0, 0, 0, 2, 4, 0, 0, 0, 0, 0, 0, 0, 0, 0, 0, 0, 0, 0, 0, 0, 0, 0, 2, 0, 0, 0, 0, 2, 0, 4, 0, 0, 0, 0, 0, 0, 0, 0, 0, 0, 4, 2, 4, 0, 2],[0, 0, 0, 0, 0, 0, 0, 0, 0, 0, 0, 0, 9, 7, 0, 9, 0, 0, 0, 0, 0, 0, 0, 7, 0, 0, 7, 0, 0, 0, 0, 0, 0, 0, 0, 0, 9, 9, 0, 7, 0, 9, 0, 0, 0, 0, 0, 0, 0, 0],[0, 0, 0, 0, 6, 0, 0, 0, 0, 0, 0, 8, 0, 0, 0, 0, 0, 8, 0, 0, 0, 6, 0, 0, 6, 8, 0, 0, 6, 0, 0, 0, 0, 0, 0, 0, 0, 0, 0, 0, 6, 0, 0, 0, 0, 0, 0, 0, 8, 0],[],[0, 0, 1, 1, 0, 0, 10, 1, 0, 0, 10, 0, 0, 0, 1, 0, 0, 0, 0, 10, 0, 0, 10, 0, 0, 0, 0, 0, 0, 1, 0, 10, 0, 1, 0, 1, 0, 0, 0, 0, 0, 0, 1, 0, 1, 0, 0, 0, 0, 0],[3, 5, 0, 0, 0, 3, 0, 0, 0, 0, 0, 0, 0, 0, 0, 0, 5, 0, 3, 0, 3, 0, 0, 0, 0, 0, 0, 0, 0, 0, 3, 0, 0, 0, 0, 0, 0, 0, 5, 0, 0, 0, 0, 3, 0, 0, 0, 0, 0, 0][14, 7, 35, 33, 44, 3, 29, 42, 2],[49, 46, 32, 27, 8],[0, 18, 43, 30, 20, 5],[45, 47, 34, 9],[16, 38, 1],[40, 24, 28, 4, 21],[39, 13, 26, 23],[17, 11, 48, 25],[12, 15, 41, 36, 37],[31, 6, 10, 22, 19]
00000000000000000000000000000000000000000000000000,00000001011000000001000000011101111100000010100001,00110010000000010000001100100000000000000000000000,00000000000000000000000000000000000000000000000000,00000000000000000000000000000000000000000000000000,00000000100011100000000000000000000011010100001100,00001000000100000100010011000000000000001000010010,00000000000000000000000000000000000000000000000000,00000000000000000000000000000000000000000000000000,11000100000000001010100000000010000000100001000000,[],[0, 0, 0, 0, 0, 0, 0, 1, 0, 1, 3, 0, 0, 0, 0, 0, 0, 0, 0, 3, 0, 0, 0, 0, 0, 0, 0, 3, 3, 1, 0, 1, 1, 3, 3, 1, 0, 0, 0, 0, 0, 0, 1, 0, 1, 0, 0, 0, 0, 1],[0, 0, 4, 4, 0, 0, 6, 0, 0, 0, 0, 0, 0, 0, 0, 6, 0, 0, 0, 0, 0, 0, 6, 4, 0, 0, 6, 0, 0, 0, 0, 0, 0, 0, 0, 0, 0, 0, 0, 0, 0, 0, 0, 0, 0, 0, 0, 0, 0, 0],[],[],[0, 0, 0, 0, 0, 0, 0, 0, 8, 0, 0, 0, 8, 7, 8, 0, 0, 0, 0, 0, 0, 0, 0, 0, 0, 0, 0, 0, 0, 0, 0, 0, 0, 0, 0, 0, 7, 7, 0, 8, 0, 7, 0, 0, 0, 0, 8, 8, 0, 0],[0, 0, 0, 0, 5, 0, 0, 0, 0, 0, 0, 9, 0, 0, 0, 0, 0, 5, 0, 0, 0, 9, 0, 0, 5, 9, 0, 0, 0, 0, 0, 0, 0, 0, 0, 0, 0, 0, 0, 0, 9, 0, 0, 0, 0, 9, 0, 0, 5, 0],[],[],[2, 10, 0, 0, 0, 10, 0, 0, 0, 0, 0, 0, 0, 0, 0, 0, 2, 0, 2, 0, 10, 0, 0, 0, 0, 0, 0, 0, 0, 0, 2, 0, 0, 0, 0, 0, 0, 0, 10, 0, 0, 0, 0, 2, 0, 0, 0, 0, 0, 0][32, 31, 44, 49, 42, 29, 9, 7, 35],[30, 16, 0, 43, 18],[28, 34, 19, 27, 10, 33],[23, 3, 2],[17, 4, 48, 24],[6, 22, 15, 26],[37, 41, 13, 36],[46, 47, 12, 8, 39, 14],[25, 11, 45, 21, 40],[20, 5, 1, 38]
00000000000000000000000000000000000000000000000000,00000000000000000000000000000000000000000000000000,00000000000000000000000000000000000000000000000000,00010011011000000001000000000101010100000000100000,00000000000000000000000000000000000000000000000000,00100000100011110000001100110000101011010110001100,00001000000100000100010011001000000000001000010011,00000000000000000000000000000000000000000000000000,00000000000000000000000000000000000000000000000000,11000100000000001010100000000010000000100001000000,[],[],[],[0, 0, 0, 10, 0, 0, 6, 6, 0, 10, 10, 0, 0, 0, 0, 0, 0, 0, 0, 6, 0, 0, 0, 0, 0, 0, 0, 0, 0, 6, 0, 6, 0, 6, 0, 10, 0, 0, 0, 0, 0, 0, 0, 0, 10, 0, 0, 0, 0, 0],[],[0, 0, 2, 0, 0, 0, 0, 0, 1, 0, 0, 0, 8, 2, 8, 1, 0, 0, 0, 0, 0, 0, 2, 8, 0, 0, 8, 1, 0, 0, 0, 0, 8, 0, 2, 0, 1, 1, 0, 2, 0, 8, 8, 0, 0, 0, 8, 1, 0, 0],[0, 0, 0, 0, 9, 0, 0, 0, 0, 0, 0, 3, 0, 0, 0, 0, 0, 9, 0, 0, 0, 3, 0, 0, 3, 3, 0, 0, 9, 0, 0, 0, 0, 0, 0, 0, 0, 0, 0, 0, 3, 0, 0, 0, 0, 3, 0, 0, 9, 9],[],[],[5, 4, 0, 0, 0, 5, 0, 0, 0, 0, 0, 0, 0, 0, 0, 0, 5, 0, 7, 0, 4, 0, 0, 0, 0, 0, 0, 0, 0, 0, 7, 0, 0, 0, 0, 0, 0, 0, 7, 0, 0, 0, 0, 7, 0, 0, 0, 0, 0, 0][47, 36, 27, 8, 37, 15],[34, 39, 13, 22, 2],[21, 11, 25, 40, 45, 24],[20, 1],[5, 0, 16],[6, 19, 31, 29, 7, 33],[38, 18, 30, 43],[23, 12, 41, 46, 32, 42, 26, 14],[28, 4, 48, 49, 17],[3, 35, 44, 9, 10]
00000000000000000000000000000000000000000000000000,00000000000000000000000000000000000000000000000000,00100010000000010000001100100000000000000000000000,00000000000000000000000000000000000000000000000000,00000000110000000000000000010000101000000000011101,00000000000011000000000000000000000011010100000000,00001000000100000100010011001000000000001000000010,00000000000000000000000000000000000000000000000000,00010001001000100001000000000101010100000010100000,11000100000000001010100000000010000000100001000000,[],[],[0, 0, 9, 0, 0, 0, 9, 0, 0, 0, 0, 0, 0, 0, 0, 9, 0, 0, 0, 0, 0, 0, 9, 9, 0, 0, 9, 0, 0, 0, 0, 0, 0, 0, 0, 0, 0, 0, 0, 0, 0, 0, 0, 0, 0, 0, 0, 0, 0, 0],[],[0, 0, 0, 0, 0, 0, 0, 0, 6, 6, 0, 0, 0, 0, 0, 0, 0, 0, 0, 0, 0, 0, 0, 0, 0, 0, 0, 8, 0, 0, 0, 0, 6, 0, 6, 0, 0, 0, 0, 0, 0, 0, 0, 0, 0, 8, 6, 6, 0, 8],[0, 0, 0, 0, 0, 0, 0, 0, 0, 0, 0, 0, 1, 1, 0, 0, 0, 0, 0, 0, 0, 0, 0, 0, 0, 0, 0, 0, 0, 0, 0, 0, 0, 0, 0, 0, 1, 1, 0, 1, 0, 1, 0, 0, 0, 0, 0, 0, 0, 0],[0, 0, 0, 0, 2, 0, 0, 0, 0, 0, 0, 2, 0, 0, 0, 0, 0, 2, 0, 0, 0, 4, 0, 0, 2, 4, 0, 0, 2, 0, 0, 0, 0, 0, 0, 0, 0, 0, 0, 0, 2, 0, 0, 0, 0, 0, 0, 0, 4, 0],[],[0, 0, 0, 7, 0, 0, 0, 5, 0, 0, 7, 0, 0, 0, 5, 0, 0, 0, 0, 7, 0, 0, 0, 0, 0, 0, 0, 0, 0, 5, 0, 5, 0, 5, 0, 5, 0, 0, 0, 0, 0, 0, 5, 0, 7, 0, 0, 0, 0, 0],[10, 3, 0, 0, 0, 3, 0, 0, 0, 0, 0, 0, 0, 0, 0, 0, 10, 0, 3, 0, 10, 0, 0, 0, 0, 0, 0, 0, 0, 0, 3, 0, 0, 0, 0, 0, 0, 0, 10, 0, 0, 0, 0, 10, 0, 0, 0, 0, 0, 0][13, 36, 41, 12, 39, 37],[24, 40, 17, 11, 28, 4],[5, 18, 1, 30],[48, 21, 25],[29, 14, 31, 42, 7, 33, 35],[32, 47, 46, 8, 9, 34],[3, 10, 19, 44],[45, 49, 27],[15, 6, 26, 2, 22, 23],[43, 0, 20, 38, 16]
00000000000000000000000000000000000000000000000000,00000000000000000000000000000000000000000000000000,00000000000000000000000000000000000000000000000000,00000000000000000000000000000000000000000000000000,00000000110000000000000000010000101010000000011101,00000000000000000000000000000000000000000000000000,00001000000100000100010011001000000000001000000010,00110010000000100000001100100000000101000000000000,00000001001000000001000000000101010000010010100000,11000100000011011010100000000010000000100101000000,[],[],[],[],[0, 0, 0, 0, 0, 0, 0, 0, 3, 9, 0, 0, 0, 0, 0, 0, 0, 0, 0, 0, 0, 0, 0, 0, 0, 0, 0, 3, 0, 0, 0, 0, 3, 0, 9, 0, 9, 0, 0, 0, 0, 0, 0, 0, 0, 3, 3, 3, 0, 9],[],[0, 0, 0, 0, 5, 0, 0, 0, 0, 0, 0, 7, 0, 0, 0, 0, 0, 5, 0, 0, 0, 7, 0, 0, 7, 7, 0, 0, 5, 0, 0, 0, 0, 0, 0, 0, 0, 0, 0, 0, 5, 0, 0, 0, 0, 0, 0, 0, 7, 0],[0, 0, 10, 10, 0, 0, 6, 0, 0, 0, 0, 0, 0, 0, 10, 0, 0, 0, 0, 0, 0, 0, 6, 10, 0, 0, 6, 0, 0, 0, 0, 0, 0, 0, 0, 10, 0, 10, 0, 0, 0, 0, 0, 0, 0, 0, 0, 0, 0, 0],[0, 0, 0, 0, 0, 0, 0, 8, 0, 0, 8, 0, 0, 0, 0, 0, 0, 0, 0, 4, 0, 0, 0, 0, 0, 0, 0, 0, 0, 4, 0, 8, 0, 4, 0, 0, 0, 0, 0, 8, 0, 0, 8, 0, 8, 0, 0, 0, 0, 0],[2, 2, 0, 0, 0, 1, 0, 0, 0, 0, 0, 0, 1, 2, 0, 1, 1, 0, 1, 0, 1, 0, 0, 0, 0, 0, 0, 0, 0, 0, 1, 0, 0, 0, 0, 0, 0, 0, 2, 0, 0, 1, 0, 1, 0, 0, 0, 0, 0, 0][43, 20, 15, 5, 18, 12, 30, 16, 41],[13, 0, 38, 1],[8, 47, 32, 46, 27, 45],[33, 29, 19],[4, 28, 40, 17],[22, 6, 26],[25, 11, 48, 21, 24],[39, 44, 7, 10, 31, 42],[36, 49, 9, 34],[37, 2, 23, 3, 35, 14]
00000000000000000000000000000000000000000000000000,00000000011000000001000000001101110000000000100001,00000000000000000000000000000000000000000000000000,00000000000000000000000000000000000000000000000000,01000000100000001000000000010000001000100011011100,10000100000011010010000000000010000011010100000000,00001000000100000100110011000000000000001000000010,00110011000000100000001100100000000100000000000000,00000000000000000000000000000000000000000000000000,00000000000000000000000000000000000000000000000000,[],[0, 0, 0, 0, 0, 0, 0, 0, 0, 8, 7, 0, 0, 0, 0, 0, 0, 0, 0, 7, 0, 0, 0, 0, 0, 0, 0, 0, 7, 7, 0, 8, 7, 8, 0, 0, 0, 0, 0, 0, 0, 0, 0, 0, 8, 0, 0, 0, 0, 8],[],[],[0, 10, 0, 0, 0, 0, 0, 0, 3, 0, 0, 0, 0, 0, 0, 0, 10, 0, 0, 0, 0, 0, 0, 0, 0, 0, 0, 3, 0, 0, 0, 0, 0, 0, 10, 0, 0, 0, 10, 0, 0, 0, 3, 3, 0, 3, 10, 3, 0, 0],[2, 0, 0, 0, 0, 1, 0, 0, 0, 0, 0, 0, 2, 2, 0, 2, 0, 0, 2, 0, 0, 0, 0, 0, 0, 0, 0, 0, 0, 0, 1, 0, 0, 0, 0, 0, 1, 1, 0, 2, 0, 2, 0, 0, 0, 0, 0, 0, 0, 0],[0, 0, 0, 0, 9, 0, 0, 0, 0, 0, 0, 4, 0, 0, 0, 0, 0, 9, 0, 0, 4, 9, 0, 0, 9, 9, 0, 0, 0, 0, 0, 0, 0, 0, 0, 0, 0, 0, 0, 0, 4, 0, 0, 0, 0, 0, 0, 0, 9, 0],[0, 0, 5, 5, 0, 0, 6, 5, 0, 0, 0, 0, 0, 0, 5, 0, 0, 0, 0, 0, 0, 0, 6, 6, 0, 0, 6, 0, 0, 0, 0, 0, 0, 0, 0, 6, 0, 0, 0, 0, 0, 0, 0, 0, 0, 0, 0, 0, 0, 0],[],[][37, 5, 36, 30],[39, 15, 41, 13, 12, 18, 0],[43, 42, 45, 8, 47, 27],[11, 40, 20],[2, 3, 14, 7],[35, 23, 6, 22, 26],[32, 19, 10, 28, 29],[33, 44, 9, 31, 49],[24, 21, 25, 17, 4, 48],[46, 16, 34, 1, 38]
00000000000000000000000000000000000000000000000000,00000000011000000001000000001101110000000000100001,00000000000000000000000000000000000000000000000000,00000000000000000000000000000000000000000000000000,01000000100000001000000000010000001000100011011100,10000100000011010010000000000010000011010100000000,00001000000100000100110011000000000000001000000010,00110011000000100000001100100000000100000000000000,00000000000000000000000000000000000000000000000000,00000000000000000000000000000000000000000000000000,[],[0, 0, 0, 0, 0, 0, 0, 0, 0, 10, 10, 0, 0, 0, 0, 0, 0, 0, 0, 9, 0, 0, 0, 0, 0, 0, 0, 0, 9, 10, 0, 9, 10, 10, 0, 0, 0, 0, 0, 0, 0, 0, 0, 0, 9, 0, 0, 0, 0, 9],[],[],[0, 3, 0, 0, 0, 0, 0, 0, 3, 0, 0, 0, 0, 0, 0, 0, 6, 0, 0, 0, 0, 0, 0, 0, 0, 0, 0, 6, 0, 0, 0, 0, 0, 0, 6, 0, 0, 0, 6, 0, 0, 0, 6, 3, 0, 3, 3, 6, 0, 0],[8, 0, 0, 0, 0, 1, 0, 0, 0, 0, 0, 0, 8, 8, 0, 1, 0, 0, 1, 0, 0, 0, 0, 0, 0, 0, 0, 0, 0, 0, 1, 0, 0, 0, 0, 0, 8, 1, 0, 8, 0, 1, 0, 0, 0, 0, 0, 0, 0, 0],[0, 0, 0, 0, 2, 0, 0, 0, 0, 0, 0, 2, 0, 0, 0, 0, 0, 4, 0, 0, 2, 4, 0, 0, 2, 2, 0, 0, 0, 0, 0, 0, 0, 0, 0, 0, 0, 0, 0, 0, 4, 0, 0, 0, 0, 0, 0, 0, 2, 0],[0, 0, 7, 5, 0, 0, 7, 5, 0, 0, 0, 0, 0, 0, 7, 0, 0, 0, 0, 0, 0, 0, 5, 7, 0, 0, 7, 0, 0, 0, 0, 0, 0, 0, 0, 5, 0, 0, 0, 0, 0, 0, 0, 0, 0, 0, 0, 0, 0, 0],[],[][41, 18, 15, 30, 5, 37],[24, 20, 11, 25, 4, 48],[46, 1, 43, 8, 45],[40, 17, 21],[22, 3, 7, 35],[27, 38, 16, 34, 42, 47],[6, 2, 23, 14, 26],[39, 36, 13, 12, 0],[19, 44, 49, 28, 31],[9, 32, 10, 29, 33]
00000000000000000000000000000000000000000000000000,00000000000000000000000000000000000000000000000000,00000000000000000000000000000000000000000000000000,00000000000000000000000000000000000000000000000000,00000000000000000000000000000000000000000000000000,00000000000000000000000000000000000000000000000000,00001000011100000100010011011100101000001000010011,00110011000000100001001100100001010101010010100000,00000000000000000000000000000000000000000000000000,11000100100011011010100000000010000010100101001100,[],[],[],[],[],[],[0, 0, 0, 0, 8, 0, 0, 0, 0, 6, 8, 5, 0, 0, 0, 0, 0, 6, 0, 0, 0, 5, 0, 0, 6, 8, 0, 6, 8, 8, 0, 0, 6, 0, 5, 0, 0, 0, 0, 0, 4, 0, 0, 0, 0, 6, 0, 0, 5, 4],[0, 0, 3, 2, 0, 0, 3, 3, 0, 0, 0, 0, 0, 0, 7, 0, 0, 0, 0, 7, 0, 0, 3, 2, 0, 0, 2, 0, 0, 0, 0, 3, 0, 2, 0, 3, 0, 7, 0, 2, 0, 0, 7, 0, 2, 0, 0, 0, 0, 0],[],[1, 10, 0, 0, 0, 10, 0, 0, 9, 0, 0, 0, 9, 9, 0, 1, 10, 0, 1, 0, 9, 0, 0, 0, 0, 0, 0, 0, 0, 0, 1, 0, 0, 0, 0, 0, 1, 0, 9, 0, 0, 1, 0, 1, 0, 0, 9, 10, 0, 0][36, 15, 18, 0, 41, 43, 30],[39, 23, 44, 33, 3, 26],[2, 6, 35, 7, 31, 22],[49, 40],[34, 21, 48, 11],[9, 17, 24, 32, 27, 45],[42, 37, 14, 19],[4, 10, 29, 28, 25],[13, 20, 8, 12, 38, 46],[5, 1, 16, 47]
00000000000000000000000000000000000000000000000000,00000000000000000000000000000000000000000000000000,00000000000000000000000000000000000000000000000000,00000000000000000000000000000000000000000000000000,00000001111000000001000000010101111000000010111101,00110010000011110000001100100000000111010100000000,00001000000100000100010011001000000000001000000010,00000000000000000000000000000000000000000000000000,00000000000000000000000000000000000000000000000000,11000100000000001010100000000010000000100001000000,[],[],[],[],[0, 0, 0, 0, 0, 0, 0, 2, 1, 1, 1, 0, 0, 0, 0, 0, 0, 0, 0, 2, 0, 0, 0, 0, 0, 0, 0, 8, 0, 1, 0, 8, 2, 8, 8, 0, 0, 0, 0, 0, 0, 0, 1, 0, 2, 1, 8, 2, 0, 1],[0, 0, 3, 3, 0, 0, 3, 0, 0, 0, 0, 0, 9, 9, 3, 7, 0, 0, 0, 0, 0, 0, 7, 9, 0, 0, 9, 0, 0, 0, 0, 0, 0, 0, 0, 3, 7, 3, 0, 7, 0, 9, 0, 0, 0, 0, 0, 0, 0, 0],[0, 0, 0, 0, 5, 0, 0, 0, 0, 0, 0, 5, 0, 0, 0, 0, 0, 6, 0, 0, 0, 6, 0, 0, 6, 5, 0, 0, 6, 0, 0, 0, 0, 0, 0, 0, 0, 0, 0, 0, 5, 0, 0, 0, 0, 0, 0, 0, 6, 0],[],[],[4, 10, 0, 0, 0, 10, 0, 0, 0, 0, 0, 0, 0, 0, 0, 0, 4, 0, 10, 0, 10, 0, 0, 0, 0, 0, 0, 0, 0, 0, 4, 0, 0, 0, 0, 0, 0, 0, 10, 0, 0, 0, 0, 4, 0, 0, 0, 0, 0, 0][29, 10, 42, 8, 49, 45, 9],[19, 47, 44, 32, 7],[14, 6, 2, 37, 35, 3],[43, 30, 16, 0],[40, 4, 11, 25],[24, 21, 28, 48, 17],[39, 36, 15, 22],[27, 31, 34, 33, 46],[26, 12, 41, 23, 13],[20, 18, 1, 38, 5]
00000000000000000000000000000000000000000000000000,00000000000000000000000000000000000000000000000000,00000000000000000000000000000000000000000000000000,00010001001000000001000000000100010100000000100000,00000000110000000000000000010001101000000010011101,00000000000011010000000000000000000011010100000000,00001000000100000100010011001000000000001000000010,00100010000000100000001100100000000000000000000000,00000000000000000000000000000000000000000000000000,11000100000000001010100000000010000000100001000000,[],[],[],[0, 0, 0, 7, 0, 0, 0, 7, 0, 0, 4, 0, 0, 0, 0, 0, 0, 0, 0, 4, 0, 0, 0, 0, 0, 0, 0, 0, 0, 7, 0, 0, 0, 4, 0, 7, 0, 0, 0, 0, 0, 0, 0, 0, 7, 0, 0, 0, 0, 0],[0, 0, 0, 0, 0, 0, 0, 0, 6, 6, 0, 0, 0, 0, 0, 0, 0, 0, 0, 0, 0, 0, 0, 0, 0, 0, 0, 6, 0, 0, 0, 10, 6, 0, 6, 0, 0, 0, 0, 0, 0, 0, 6, 0, 0, 10, 10, 10, 0, 10],[0, 0, 0, 0, 0, 0, 0, 0, 0, 0, 0, 0, 3, 3, 0, 3, 0, 0, 0, 0, 0, 0, 0, 0, 0, 0, 0, 0, 0, 0, 0, 0, 0, 0, 0, 0, 3, 3, 0, 3, 0, 3, 0, 0, 0, 0, 0, 0, 0, 0],[0, 0, 0, 0, 5, 0, 0, 0, 0, 0, 0, 9, 0, 0, 0, 0, 0, 5, 0, 0, 0, 9, 0, 0, 9, 9, 0, 0, 5, 0, 0, 0, 0, 0, 0, 0, 0, 0, 0, 0, 9, 0, 0, 0, 0, 0, 0, 0, 5, 0],[0, 0, 2, 0, 0, 0, 2, 0, 0, 0, 0, 0, 0, 0, 2, 0, 0, 0, 0, 0, 0, 0, 2, 2, 0, 0, 2, 0, 0, 0, 0, 0, 0, 0, 0, 0, 0, 0, 0, 0, 0, 0, 0, 0, 0, 0, 0, 0, 0, 0],[],[8, 1, 0, 0, 0, 1, 0, 0, 0, 0, 0, 0, 0, 0, 0, 0, 8, 0, 8, 0, 8, 0, 0, 0, 0, 0, 0, 0, 0, 0, 1, 0, 0, 0, 0, 0, 0, 0, 1, 0, 0, 0, 0, 1, 0, 0, 0, 0, 0, 0][38, 43, 1, 30, 5],[2, 14, 26, 6, 22, 23],[13, 41, 37, 15, 12, 39, 36],[33, 10, 19],[4, 48, 17, 28],[27, 32, 8, 34, 42, 9],[35, 3, 29, 7, 44],[16, 20, 0, 18],[25, 24, 11, 40, 21],[45, 46, 31, 47, 49]
00000000000000000000000000000000000000000000000000,00000000111000000000000000011101101000000000000101,00000000000000000000000000000000000000000000000000,00000000000000000000000000000000000000000000000000,00000000000000000000000000000000000000000000000000,00000000000000000000000000000000000000000000000000,00001000000100000100010011000000000000001000010010,00000000000000000000000000000000000000000000000000,00110011000000100001001100100000010101010010100000,11000100000011011010100000000010000010100101001000,[],[0, 0, 0, 0, 0, 0, 0, 0, 2, 2, 8, 0, 0, 0, 0, 0, 0, 0, 0, 0, 0, 0, 0, 0, 0, 0, 0, 4, 8, 8, 0, 8, 8, 0, 2, 0, 0, 0, 0, 0, 0, 0, 0, 0, 0, 0, 0, 2, 0, 4],[],[],[],[],[0, 0, 0, 0, 5, 0, 0, 0, 0, 0, 0, 5, 0, 0, 0, 0, 0, 9, 0, 0, 0, 5, 0, 0, 9, 9, 0, 0, 0, 0, 0, 0, 0, 0, 0, 0, 0, 0, 0, 0, 5, 0, 0, 0, 0, 9, 0, 0, 9, 0],[],[0, 0, 3, 10, 0, 0, 10, 3, 0, 0, 0, 0, 0, 0, 10, 0, 0, 0, 0, 3, 0, 0, 10, 10, 0, 0, 3, 0, 0, 0, 0, 0, 0, 3, 0, 3, 0, 10, 0, 3, 0, 0, 10, 0, 3, 0, 0, 0, 0, 0],[7, 1, 0, 0, 0, 7, 0, 0, 0, 0, 0, 0, 7, 6, 0, 7, 6, 0, 1, 0, 1, 0, 0, 0, 0, 0, 0, 0, 0, 0, 6, 0, 0, 0, 0, 0, 1, 0, 7, 0, 0, 7, 0, 1, 0, 0, 1, 0, 0, 0][1, 43, 36, 20, 18, 46],[8, 47, 34, 9],[35, 7, 26, 39, 44, 33, 19, 2],[49, 27],[11, 4, 40, 21],[13, 16, 30],[0, 38, 12, 5, 15, 41],[10, 31, 32, 28, 29],[24, 45, 17, 25, 48],[42, 37, 23, 22, 6, 3, 14]
00000000000000000000000000000000000000000000000000,00000000000000000000000000000000000000000000000000,00000000000000000000000000000000000000000000000000,00000000000000000000000000000000000000000000000000,01000000110000001000000000010000101000100001011101,10000100000011010010000000000010000011010100000000,00001000000100000100110011001000000000001000000010,00110010000000100000001100100000000100000000000000,00000001001000000001000000000101010000000010100000,00000000000000000000000000000000000000000000000000,[],[],[],[],[0, 1, 0, 0, 0, 0, 0, 0, 3, 3, 0, 0, 0, 0, 0, 0, 1, 0, 0, 0, 0, 0, 0, 0, 0, 0, 0, 1, 0, 0, 0, 0, 3, 0, 3, 0, 0, 0, 3, 0, 0, 0, 0, 1, 0, 3, 3, 1, 0, 1],[10, 0, 0, 0, 0, 10, 0, 0, 0, 0, 0, 0, 6, 10, 0, 6, 0, 0, 6, 0, 0, 0, 0, 0, 0, 0, 0, 0, 0, 0, 10, 0, 0, 0, 0, 0, 6, 6, 0, 6, 0, 10, 0, 0, 0, 0, 0, 0, 0, 0],[0, 0, 0, 0, 2, 0, 0, 0, 0, 0, 0, 2, 0, 0, 0, 0, 0, 8, 0, 0, 2, 8, 0, 0, 8, 2, 0, 0, 2, 0, 0, 0, 0, 0, 0, 0, 0, 0, 0, 0, 2, 0, 0, 0, 0, 0, 0, 0, 8, 0],[0, 0, 4, 4, 0, 0, 4, 0, 0, 0, 0, 0, 0, 0, 9, 0, 0, 0, 0, 0, 0, 0, 9, 9, 0, 0, 9, 0, 0, 0, 0, 0, 0, 0, 0, 9, 0, 0, 0, 0, 0, 0, 0, 0, 0, 0, 0, 0, 0, 0],[0, 0, 0, 0, 0, 0, 0, 7, 0, 0, 7, 0, 0, 0, 0, 0, 0, 0, 0, 5, 0, 0, 0, 0, 0, 0, 0, 0, 0, 7, 0, 5, 0, 5, 0, 0, 0, 0, 0, 0, 0, 0, 7, 0, 7, 0, 0, 0, 0, 0],[][16, 47, 27, 49, 43, 1],[20, 40, 28, 11, 4, 25],[8, 9, 32, 34, 45, 46, 38],[2, 6, 3],[33, 19, 31],[15, 18, 39, 12, 37, 36],[29, 7, 10, 42, 44],[17, 24, 21, 48],[14, 35, 26, 22, 23],[0, 30, 13, 41, 5]
